p cnf 200 873
e 1 2 3 4 5 6 7 8 9 10 11 12 13 14 15 16 17 18 19 20 21 22 23 24 25 26 27 28 29 30 31 32 33 34 35 36 37 38 39 40 41 42 43 44 45 46 47 48 49 50 51 52 53 54 55 56 57 58 59 60 0
a 76 77 78 79 80 81 82 83 84 85 86 87 88 89 90 0
e 61 62 63 64 65 66 67 68 69 70 71 72 73 74 75 91 92 93 94 95 96 97 98 99 100 101 102 103 104 105 106 107 108 109 110 111 112 113 114 115 116 117 118 119 120 121 122 123 124 125 126 127 128 129 130 131 132 133 134 135 136 137 138 139 140 141 142 143 144 145 146 147 148 149 150 151 152 153 154 155 156 157 158 159 160 161 162 163 164 165 166 167 168 169 170 171 172 173 174 175 176 177 178 179 180 181 182 183 184 185 186 187 188 189 190 191 192 193 194 195 196 197 198 199 200 0
51 0
61 62 63 51 0
61 62 -63 52 0
61 -62 63 53 0
61 -62 -63 54 0
-61 62 63 55 0
64 65 66 56 0
64 65 -66 57 0
64 -65 66 58 0
64 -65 -66 59 0
-64 65 66 60 0
-61 -63 62 0
-61 63 -62 0
-61 -63 -62 0
61 62 63 64 65 66 1 0
61 62 63 64 65 -66 2 0
61 62 63 64 -65 66 3 0
61 62 63 64 -65 -66 4 0
61 62 63 -64 65 66 5 0
61 62 -63 64 65 66 6 0
61 62 -63 64 65 -66 7 0
61 62 -63 64 -65 66 8 0
61 62 -63 64 -65 -66 9 0
61 62 -63 -64 65 66 10 0
61 -62 63 64 65 66 11 0
61 -62 63 64 65 -66 12 0
61 -62 63 64 -65 66 13 0
61 -62 63 64 -65 -66 14 0
61 -62 63 -64 65 66 15 0
61 -62 -63 64 65 66 16 0
61 -62 -63 64 65 -66 17 0
61 -62 -63 64 -65 66 18 0
61 -62 -63 64 -65 -66 19 0
61 -62 -63 -64 65 66 20 0
-61 62 63 64 65 66 21 0
-61 62 63 64 65 -66 22 0
-61 62 63 64 -65 66 23 0
-61 62 63 64 -65 -66 24 0
-61 62 63 -64 65 66 25 0
-64 -66 65 0
-64 66 -65 0
-64 -66 -65 0
67 68 69 51 0
67 68 -69 52 0
67 -68 69 53 0
67 -68 -69 54 0
-67 68 69 55 0
73 74 75 56 0
73 74 -75 57 0
73 -74 75 58 0
73 -74 -75 59 0
-73 74 75 60 0
-67 -69 68 0
-67 69 -68 0
-67 -69 -68 0
67 68 69 70 71 72 1 0
67 68 69 70 71 -72 2 0
67 68 69 70 -71 72 3 0
67 68 69 70 -71 -72 4 0
67 68 69 -70 71 72 5 0
67 68 -69 70 71 72 6 0
67 68 -69 70 71 -72 7 0
67 68 -69 70 -71 72 8 0
67 68 -69 70 -71 -72 9 0
67 68 -69 -70 71 72 10 0
67 -68 69 70 71 72 11 0
67 -68 69 70 71 -72 12 0
67 -68 69 70 -71 72 13 0
67 -68 69 70 -71 -72 14 0
67 -68 69 -70 71 72 15 0
67 -68 -69 70 71 72 16 0
67 -68 -69 70 71 -72 17 0
67 -68 -69 70 -71 72 18 0
67 -68 -69 70 -71 -72 19 0
67 -68 -69 -70 71 72 20 0
-67 68 69 70 71 72 21 0
-67 68 69 70 71 -72 22 0
-67 68 69 70 -71 72 23 0
-67 68 69 70 -71 -72 24 0
-67 68 69 -70 71 72 25 0
-70 -72 71 0
-70 72 -71 0
-70 -72 -71 0
70 71 72 73 74 75 26 0
70 71 72 73 74 -75 27 0
70 71 72 73 -74 75 28 0
70 71 72 73 -74 -75 29 0
70 71 72 -73 74 75 30 0
70 71 -72 73 74 75 31 0
70 71 -72 73 74 -75 32 0
70 71 -72 73 -74 75 33 0
70 71 -72 73 -74 -75 34 0
70 71 -72 -73 74 75 35 0
70 -71 72 73 74 75 36 0
70 -71 72 73 74 -75 37 0
70 -71 72 73 -74 75 38 0
70 -71 72 73 -74 -75 39 0
70 -71 72 -73 74 75 40 0
70 -71 -72 73 74 75 41 0
70 -71 -72 73 74 -75 42 0
70 -71 -72 73 -74 75 43 0
70 -71 -72 73 -74 -75 44 0
70 -71 -72 -73 74 75 45 0
-70 71 72 73 74 75 46 0
-70 71 72 73 74 -75 47 0
-70 71 72 73 -74 75 48 0
-70 71 72 73 -74 -75 49 0
-70 71 72 -73 74 75 50 0
-73 -75 74 0
-73 75 -74 0
-73 -75 -74 0
-76 -91 0
-77 -91 0
-78 -91 0
-51 -91 0
76 77 78 51 91 0
-76 -92 0
-77 -92 0
78 -92 0
-52 -92 0
76 77 -78 52 92 0
-76 -93 0
77 -93 0
-78 -93 0
-53 -93 0
76 -77 78 53 93 0
-76 -94 0
77 -94 0
78 -94 0
-54 -94 0
76 -77 -78 54 94 0
76 -95 0
-77 -95 0
-78 -95 0
-55 -95 0
-76 77 78 55 95 0
-79 -96 0
-80 -96 0
-81 -96 0
-56 -96 0
79 80 81 56 96 0
-79 -97 0
-80 -97 0
81 -97 0
-57 -97 0
79 80 -81 57 97 0
-79 -98 0
80 -98 0
-81 -98 0
-58 -98 0
79 -80 81 58 98 0
-79 -99 0
80 -99 0
81 -99 0
-59 -99 0
79 -80 -81 59 99 0
79 -100 0
-80 -100 0
-81 -100 0
-60 -100 0
-79 80 81 60 100 0
76 -101 0
78 -101 0
-77 -101 0
-76 -78 77 101 0
76 -102 0
-78 -102 0
77 -102 0
-76 78 -77 102 0
76 -103 0
78 -103 0
77 -103 0
-76 -78 -77 103 0
-76 -104 0
-77 -104 0
-78 -104 0
-79 -104 0
-80 -104 0
-81 -104 0
-26 -104 0
76 77 78 79 80 81 26 104 0
-76 -105 0
-77 -105 0
-78 -105 0
-79 -105 0
-80 -105 0
81 -105 0
-27 -105 0
76 77 78 79 80 -81 27 105 0
-76 -106 0
-77 -106 0
-78 -106 0
-79 -106 0
80 -106 0
-81 -106 0
-28 -106 0
76 77 78 79 -80 81 28 106 0
-76 -107 0
-77 -107 0
-78 -107 0
-79 -107 0
80 -107 0
81 -107 0
-29 -107 0
76 77 78 79 -80 -81 29 107 0
-76 -108 0
-77 -108 0
-78 -108 0
79 -108 0
-80 -108 0
-81 -108 0
-30 -108 0
76 77 78 -79 80 81 30 108 0
-76 -109 0
-77 -109 0
78 -109 0
-79 -109 0
-80 -109 0
-81 -109 0
-31 -109 0
76 77 -78 79 80 81 31 109 0
-76 -110 0
-77 -110 0
78 -110 0
-79 -110 0
-80 -110 0
81 -110 0
-32 -110 0
76 77 -78 79 80 -81 32 110 0
-76 -111 0
-77 -111 0
78 -111 0
-79 -111 0
80 -111 0
-81 -111 0
-33 -111 0
76 77 -78 79 -80 81 33 111 0
-76 -112 0
-77 -112 0
78 -112 0
-79 -112 0
80 -112 0
81 -112 0
-34 -112 0
76 77 -78 79 -80 -81 34 112 0
-76 -113 0
-77 -113 0
78 -113 0
79 -113 0
-80 -113 0
-81 -113 0
-35 -113 0
76 77 -78 -79 80 81 35 113 0
-76 -114 0
77 -114 0
-78 -114 0
-79 -114 0
-80 -114 0
-81 -114 0
-36 -114 0
76 -77 78 79 80 81 36 114 0
-76 -115 0
77 -115 0
-78 -115 0
-79 -115 0
-80 -115 0
81 -115 0
-37 -115 0
76 -77 78 79 80 -81 37 115 0
-76 -116 0
77 -116 0
-78 -116 0
-79 -116 0
80 -116 0
-81 -116 0
-38 -116 0
76 -77 78 79 -80 81 38 116 0
-76 -117 0
77 -117 0
-78 -117 0
-79 -117 0
80 -117 0
81 -117 0
-39 -117 0
76 -77 78 79 -80 -81 39 117 0
-76 -118 0
77 -118 0
-78 -118 0
79 -118 0
-80 -118 0
-81 -118 0
-40 -118 0
76 -77 78 -79 80 81 40 118 0
-76 -119 0
77 -119 0
78 -119 0
-79 -119 0
-80 -119 0
-81 -119 0
-41 -119 0
76 -77 -78 79 80 81 41 119 0
-76 -120 0
77 -120 0
78 -120 0
-79 -120 0
-80 -120 0
81 -120 0
-42 -120 0
76 -77 -78 79 80 -81 42 120 0
-76 -121 0
77 -121 0
78 -121 0
-79 -121 0
80 -121 0
-81 -121 0
-43 -121 0
76 -77 -78 79 -80 81 43 121 0
-76 -122 0
77 -122 0
78 -122 0
-79 -122 0
80 -122 0
81 -122 0
-44 -122 0
76 -77 -78 79 -80 -81 44 122 0
-76 -123 0
77 -123 0
78 -123 0
79 -123 0
-80 -123 0
-81 -123 0
-45 -123 0
76 -77 -78 -79 80 81 45 123 0
76 -124 0
-77 -124 0
-78 -124 0
-79 -124 0
-80 -124 0
-81 -124 0
-46 -124 0
-76 77 78 79 80 81 46 124 0
76 -125 0
-77 -125 0
-78 -125 0
-79 -125 0
-80 -125 0
81 -125 0
-47 -125 0
-76 77 78 79 80 -81 47 125 0
76 -126 0
-77 -126 0
-78 -126 0
-79 -126 0
80 -126 0
-81 -126 0
-48 -126 0
-76 77 78 79 -80 81 48 126 0
76 -127 0
-77 -127 0
-78 -127 0
-79 -127 0
80 -127 0
81 -127 0
-49 -127 0
-76 77 78 79 -80 -81 49 127 0
76 -128 0
-77 -128 0
-78 -128 0
79 -128 0
-80 -128 0
-81 -128 0
-50 -128 0
-76 77 78 -79 80 81 50 128 0
79 -129 0
81 -129 0
-80 -129 0
-79 -81 80 129 0
79 -130 0
-81 -130 0
80 -130 0
-79 81 -80 130 0
79 -131 0
81 -131 0
80 -131 0
-79 -81 -80 131 0
91 92 93 94 95 96 97 98 99 100 101 102 103 104 105 106 107 108 109 110 111 112 113 114 115 116 117 118 119 120 121 122 123 124 125 126 127 128 129 130 131 0
-82 -132 0
-83 -132 0
-84 -132 0
-51 -132 0
82 83 84 51 132 0
-82 -133 0
-83 -133 0
84 -133 0
-52 -133 0
82 83 -84 52 133 0
-82 -134 0
83 -134 0
-84 -134 0
-53 -134 0
82 -83 84 53 134 0
-82 -135 0
83 -135 0
84 -135 0
-54 -135 0
82 -83 -84 54 135 0
82 -136 0
-83 -136 0
-84 -136 0
-55 -136 0
-82 83 84 55 136 0
-88 -137 0
-89 -137 0
-90 -137 0
-56 -137 0
88 89 90 56 137 0
-88 -138 0
-89 -138 0
90 -138 0
-57 -138 0
88 89 -90 57 138 0
-88 -139 0
89 -139 0
-90 -139 0
-58 -139 0
88 -89 90 58 139 0
-88 -140 0
89 -140 0
90 -140 0
-59 -140 0
88 -89 -90 59 140 0
88 -141 0
-89 -141 0
-90 -141 0
-60 -141 0
-88 89 90 60 141 0
82 -142 0
84 -142 0
-83 -142 0
-82 -84 83 142 0
82 -143 0
-84 -143 0
83 -143 0
-82 84 -83 143 0
82 -144 0
84 -144 0
83 -144 0
-82 -84 -83 144 0
-82 -145 0
-83 -145 0
-84 -145 0
-85 -145 0
-86 -145 0
-87 -145 0
-26 -145 0
82 83 84 85 86 87 26 145 0
-82 -146 0
-83 -146 0
-84 -146 0
-85 -146 0
-86 -146 0
87 -146 0
-27 -146 0
82 83 84 85 86 -87 27 146 0
-82 -147 0
-83 -147 0
-84 -147 0
-85 -147 0
86 -147 0
-87 -147 0
-28 -147 0
82 83 84 85 -86 87 28 147 0
-82 -148 0
-83 -148 0
-84 -148 0
-85 -148 0
86 -148 0
87 -148 0
-29 -148 0
82 83 84 85 -86 -87 29 148 0
-82 -149 0
-83 -149 0
-84 -149 0
85 -149 0
-86 -149 0
-87 -149 0
-30 -149 0
82 83 84 -85 86 87 30 149 0
-82 -150 0
-83 -150 0
84 -150 0
-85 -150 0
-86 -150 0
-87 -150 0
-31 -150 0
82 83 -84 85 86 87 31 150 0
-82 -151 0
-83 -151 0
84 -151 0
-85 -151 0
-86 -151 0
87 -151 0
-32 -151 0
82 83 -84 85 86 -87 32 151 0
-82 -152 0
-83 -152 0
84 -152 0
-85 -152 0
86 -152 0
-87 -152 0
-33 -152 0
82 83 -84 85 -86 87 33 152 0
-82 -153 0
-83 -153 0
84 -153 0
-85 -153 0
86 -153 0
87 -153 0
-34 -153 0
82 83 -84 85 -86 -87 34 153 0
-82 -154 0
-83 -154 0
84 -154 0
85 -154 0
-86 -154 0
-87 -154 0
-35 -154 0
82 83 -84 -85 86 87 35 154 0
-82 -155 0
83 -155 0
-84 -155 0
-85 -155 0
-86 -155 0
-87 -155 0
-36 -155 0
82 -83 84 85 86 87 36 155 0
-82 -156 0
83 -156 0
-84 -156 0
-85 -156 0
-86 -156 0
87 -156 0
-37 -156 0
82 -83 84 85 86 -87 37 156 0
-82 -157 0
83 -157 0
-84 -157 0
-85 -157 0
86 -157 0
-87 -157 0
-38 -157 0
82 -83 84 85 -86 87 38 157 0
-82 -158 0
83 -158 0
-84 -158 0
-85 -158 0
86 -158 0
87 -158 0
-39 -158 0
82 -83 84 85 -86 -87 39 158 0
-82 -159 0
83 -159 0
-84 -159 0
85 -159 0
-86 -159 0
-87 -159 0
-40 -159 0
82 -83 84 -85 86 87 40 159 0
-82 -160 0
83 -160 0
84 -160 0
-85 -160 0
-86 -160 0
-87 -160 0
-41 -160 0
82 -83 -84 85 86 87 41 160 0
-82 -161 0
83 -161 0
84 -161 0
-85 -161 0
-86 -161 0
87 -161 0
-42 -161 0
82 -83 -84 85 86 -87 42 161 0
-82 -162 0
83 -162 0
84 -162 0
-85 -162 0
86 -162 0
-87 -162 0
-43 -162 0
82 -83 -84 85 -86 87 43 162 0
-82 -163 0
83 -163 0
84 -163 0
-85 -163 0
86 -163 0
87 -163 0
-44 -163 0
82 -83 -84 85 -86 -87 44 163 0
-82 -164 0
83 -164 0
84 -164 0
85 -164 0
-86 -164 0
-87 -164 0
-45 -164 0
82 -83 -84 -85 86 87 45 164 0
82 -165 0
-83 -165 0
-84 -165 0
-85 -165 0
-86 -165 0
-87 -165 0
-46 -165 0
-82 83 84 85 86 87 46 165 0
82 -166 0
-83 -166 0
-84 -166 0
-85 -166 0
-86 -166 0
87 -166 0
-47 -166 0
-82 83 84 85 86 -87 47 166 0
82 -167 0
-83 -167 0
-84 -167 0
-85 -167 0
86 -167 0
-87 -167 0
-48 -167 0
-82 83 84 85 -86 87 48 167 0
82 -168 0
-83 -168 0
-84 -168 0
-85 -168 0
86 -168 0
87 -168 0
-49 -168 0
-82 83 84 85 -86 -87 49 168 0
82 -169 0
-83 -169 0
-84 -169 0
85 -169 0
-86 -169 0
-87 -169 0
-50 -169 0
-82 83 84 -85 86 87 50 169 0
85 -170 0
87 -170 0
-86 -170 0
-85 -87 86 170 0
85 -171 0
-87 -171 0
86 -171 0
-85 87 -86 171 0
85 -172 0
87 -172 0
86 -172 0
-85 -87 -86 172 0
-85 -173 0
-86 -173 0
-87 -173 0
-88 -173 0
-89 -173 0
-90 -173 0
-26 -173 0
85 86 87 88 89 90 26 173 0
-85 -174 0
-86 -174 0
-87 -174 0
-88 -174 0
-89 -174 0
90 -174 0
-27 -174 0
85 86 87 88 89 -90 27 174 0
-85 -175 0
-86 -175 0
-87 -175 0
-88 -175 0
89 -175 0
-90 -175 0
-28 -175 0
85 86 87 88 -89 90 28 175 0
-85 -176 0
-86 -176 0
-87 -176 0
-88 -176 0
89 -176 0
90 -176 0
-29 -176 0
85 86 87 88 -89 -90 29 176 0
-85 -177 0
-86 -177 0
-87 -177 0
88 -177 0
-89 -177 0
-90 -177 0
-30 -177 0
85 86 87 -88 89 90 30 177 0
-85 -178 0
-86 -178 0
87 -178 0
-88 -178 0
-89 -178 0
-90 -178 0
-31 -178 0
85 86 -87 88 89 90 31 178 0
-85 -179 0
-86 -179 0
87 -179 0
-88 -179 0
-89 -179 0
90 -179 0
-32 -179 0
85 86 -87 88 89 -90 32 179 0
-85 -180 0
-86 -180 0
87 -180 0
-88 -180 0
89 -180 0
-90 -180 0
-33 -180 0
85 86 -87 88 -89 90 33 180 0
-85 -181 0
-86 -181 0
87 -181 0
-88 -181 0
89 -181 0
90 -181 0
-34 -181 0
85 86 -87 88 -89 -90 34 181 0
-85 -182 0
-86 -182 0
87 -182 0
88 -182 0
-89 -182 0
-90 -182 0
-35 -182 0
85 86 -87 -88 89 90 35 182 0
-85 -183 0
86 -183 0
-87 -183 0
-88 -183 0
-89 -183 0
-90 -183 0
-36 -183 0
85 -86 87 88 89 90 36 183 0
-85 -184 0
86 -184 0
-87 -184 0
-88 -184 0
-89 -184 0
90 -184 0
-37 -184 0
85 -86 87 88 89 -90 37 184 0
-85 -185 0
86 -185 0
-87 -185 0
-88 -185 0
89 -185 0
-90 -185 0
-38 -185 0
85 -86 87 88 -89 90 38 185 0
-85 -186 0
86 -186 0
-87 -186 0
-88 -186 0
89 -186 0
90 -186 0
-39 -186 0
85 -86 87 88 -89 -90 39 186 0
-85 -187 0
86 -187 0
-87 -187 0
88 -187 0
-89 -187 0
-90 -187 0
-40 -187 0
85 -86 87 -88 89 90 40 187 0
-85 -188 0
86 -188 0
87 -188 0
-88 -188 0
-89 -188 0
-90 -188 0
-41 -188 0
85 -86 -87 88 89 90 41 188 0
-85 -189 0
86 -189 0
87 -189 0
-88 -189 0
-89 -189 0
90 -189 0
-42 -189 0
85 -86 -87 88 89 -90 42 189 0
-85 -190 0
86 -190 0
87 -190 0
-88 -190 0
89 -190 0
-90 -190 0
-43 -190 0
85 -86 -87 88 -89 90 43 190 0
-85 -191 0
86 -191 0
87 -191 0
-88 -191 0
89 -191 0
90 -191 0
-44 -191 0
85 -86 -87 88 -89 -90 44 191 0
-85 -192 0
86 -192 0
87 -192 0
88 -192 0
-89 -192 0
-90 -192 0
-45 -192 0
85 -86 -87 -88 89 90 45 192 0
85 -193 0
-86 -193 0
-87 -193 0
-88 -193 0
-89 -193 0
-90 -193 0
-46 -193 0
-85 86 87 88 89 90 46 193 0
85 -194 0
-86 -194 0
-87 -194 0
-88 -194 0
-89 -194 0
90 -194 0
-47 -194 0
-85 86 87 88 89 -90 47 194 0
85 -195 0
-86 -195 0
-87 -195 0
-88 -195 0
89 -195 0
-90 -195 0
-48 -195 0
-85 86 87 88 -89 90 48 195 0
85 -196 0
-86 -196 0
-87 -196 0
-88 -196 0
89 -196 0
90 -196 0
-49 -196 0
-85 86 87 88 -89 -90 49 196 0
85 -197 0
-86 -197 0
-87 -197 0
88 -197 0
-89 -197 0
-90 -197 0
-50 -197 0
-85 86 87 -88 89 90 50 197 0
88 -198 0
90 -198 0
-89 -198 0
-88 -90 89 198 0
88 -199 0
-90 -199 0
89 -199 0
-88 90 -89 199 0
88 -200 0
90 -200 0
89 -200 0
-88 -90 -89 200 0
132 133 134 135 136 137 138 139 140 141 142 143 144 145 146 147 148 149 150 151 152 153 154 155 156 157 158 159 160 161 162 163 164 165 166 167 168 169 170 171 172 173 174 175 176 177 178 179 180 181 182 183 184 185 186 187 188 189 190 191 192 193 194 195 196 197 198 199 200 0
